minizinc/sudoku_problems2/sudoku_p60.dzn
%
% sudoku_p60.dzn
% See http://www.hakank.org/minizinc/sudoku_gcc.mzn
% 
% This problem is problem 60 from
% Gecode's sudoku.cpp
% http://www.gecode.org/gecode-doc-latest/sudoku_8cpp-source.html
% 
x = array2d(1..n, 1..n, [   
% http://janko.at/Raetsel/Sudoku/507.a.htm
% 60
  4,  _,  8, 12, 11,  9, 16,  _,  _,  _, 13,  _,  _, 15, 10,  2,
 16,  _,  _,  1,  8,  _,  _, 10,  9,  6,  _,  _,  _, 14,  _,  _,
 15,  9,  _,  _,  _,  _, 14, 13,  _,  _,  8,  _,  _,  _,  _, 11,
  _,  _,  _, 13,  7,  3,  _,  _,  _,  2, 15,  _, 16,  _,  8,  1,
  _,  _,  _,  _,  _,  _,  _,  2,  _,  _,  _,  _, 12,  _, 15,  9,
  3,  _, 13,  7,  _, 14,  6,  _,  _,  _,  9,  _,  4,  _,  _, 10,
  _, 12,  _,  4,  _,  _, 13,  9,  _, 16, 10,  _,  _,  3,  _,  7,
  _,  2,  _,  _,  _,  _,  _,  _,  _,  7,  _,  3,  _,  6,  5,  _,
  _,  3, 11,  _,  5,  _,  2,  _,  _,  _,  _,  _,  _,  _, 13,  _,
  6,  _,  4,  _,  _, 16,  8,  _, 15, 12,  _,  _, 11,  _,  2,  _,
 14,  _,  _, 16,  _, 11,  _,  _,  _, 13,  2,  _,  1,  8,  _, 15,
 12, 13,  _,  2,  _,  _,  _,  _,  3,  _,  _,  _,  _,  _,  _,  _,
 13,  1,  _, 11,  _,  8, 15,  _,  _,  _, 12,  9, 14,  _,  _,  _,
  2,  _,  _,  _,  _, 13,  _,  _,  1, 11,  _,  _,  _,  _, 16,  5,
  _,  _,  5,  _,  _,  _,  1,  7, 13,  _,  _, 16,  9,  _,  _, 12,
  7, 14,  9,  _,  _, 12,  _,  _,  _,  4,  6,  8, 15, 13,  _,  3
]);

n = 16;


